1633068000
1633096800
1633096800
1633104000
1633327200
1633356000
1633413600
1633442400
1633500000
1633528800
1633586400
1633615200
1633672800
1633701600
1634025600
1634047200
1633932000
1633960800
1634104800
1634133600
1634191200
1634220000
1634277600
1634306400
1634536800
1634565600
1634623200
1634652000
1634709600
1634738400
1634796000
1634824800
1634882400
1634911200
1635141600
1635170400
1635170400
1635177600
1635228000
1635256800
1635314400
1635343200
1635400800
1635429600
1635501600
1635523200
